variable t index 0.5 0.55 0.6 0.65 0.7 0.75 0.8 0.85 0.9 0.95 1.0 1.05 1.1 1.15 1.2    
log  thermo_output_temp_$t
processors * * *
units       lj
dimension   3
boundary    p p p
atom_style  molecular

pair_style  lj/cut 2.5 

read_data out_0.5.data


pair_coeff 1 1 1.0 1.0 

neighbor  0.5 bin
neigh_modify  every 10 delay 0
timestep      0.001

velocity all create $t 314159

group tracer type 1 

##### NVT equilibration 
dump img all custom 10000 NVTequilib_temp_$t id mol mass type x y z 

fix fxlange all langevin $t $t 1.0 265358
fix fxstandard all nve
fix myrec all recenter INIT INIT INIT units box 

thermo        10000
thermo_style  custom step pe ke temp press density lx ly lz
thermo_modify flush yes line yaml 

run 1000000

##### production stage 

undump img 
reset_timestep 0 
dump img all custom 40000 prod_run_temp_$t id mol mass type x y z
compute mypress all pressure thermo_temp 
compute mymsd tracer msd 
compute mychunk all chunk/atom bin/1d z center 0.5 units box 

variable px equal c_mypress[1]
variable py equal c_mypress[2]
variable pz equal c_mypress[3]


fix print_msd tracer ave/time 100 10 1000 c_mymsd[4] file lammps_tracer_protein_msd_Temp_$t.dat
fix print_rg_press all ave/time 100 5 1000  v_px v_py v_pz file Rg_pressures_Temp_$t.dat
fix print_densityprof all ave/chunk 100 5 1000 mychunk density/mass ave running overwrite file rho_prof_Temp_$t.dat

run 1000000

write_data out_$t.data
clear 
next t 
jump run2.lmp  
